unknown
(model
; cardinality of BoundSet is 2
(declare-sort BoundSet 0)
; rep: @uc_BoundSet_0
; rep: @uc_BoundSet_1
; cardinality of UnboundSet is 1
(declare-sort UnboundSet 0)
(declare-fun groundTerm_3 () UnboundSet)
(define-fun IsInSuit ((BOUND_VARIABLE_420 BoundSet)) Bool true)
(define-fun IsCheering ((BOUND_VARIABLE_420 BoundSet)) Bool true)
(define-fun IsInLibrary ((BOUND_VARIABLE_420 BoundSet)) Bool true)
(define-fun IsInFrontOf ((BOUND_VARIABLE_427 BoundSet) (BOUND_VARIABLE_428 BoundSet)) Bool true)
(define-fun IsNear ((BOUND_VARIABLE_427 BoundSet) (BOUND_VARIABLE_428 BoundSet)) Bool false)
)
sat
(model
; cardinality of BoundSet is 1
(declare-sort BoundSet 0)
; rep: @uc_BoundSet_0
; cardinality of UnboundSet is 1
(declare-sort UnboundSet 0)
(declare-fun groundTerm_5 () UnboundSet)
(define-fun IsInSuit ((BOUND_VARIABLE_458 BoundSet)) Bool true)
(define-fun IsCheering ((BOUND_VARIABLE_458 BoundSet)) Bool true)
(define-fun IsInLibrary ((BOUND_VARIABLE_458 BoundSet)) Bool true)
(define-fun IsInFrontOf ((BOUND_VARIABLE_465 BoundSet) (BOUND_VARIABLE_466 BoundSet)) Bool true)
(define-fun IsNear ((BOUND_VARIABLE_465 BoundSet) (BOUND_VARIABLE_466 BoundSet)) Bool false)
)
